
Model name: lp
                x1       x2 
Minimize         3        3 
r_1              3        3 >=        3
r_2              2        2 >=        2
Type          Real     Real 
upbo       Infinite Infinite
lowbo            0        0 

Value of objective function: 3

Actual values of the variables:
x1                   1
x2                   0

Actual values of the constraints:
r_1                  3
r_2                  2

Dual values with from - till limits:
r_1                         1         3   1e+024
r_2                         0   -1e+024   1e+024
x1                          0   -1e+024   1e+024
x2                          0   -1e+024   1e+024
